(set-info :source |printed by MathSAT|)
(declare-fun call_firefly.ite37 () Int)
(declare-fun call_firefly.ite23 () Int)
(declare-fun call_firefly.ite31 () Int)
(declare-fun call_firefly.ite28 () Int)
(declare-fun _RT_ () Bool)
(declare-fun param_i_invalid () Int)
(declare-fun call_firefly.ite36 () Int)
(declare-fun call_firefly.ite () Int)
(declare-fun call_firefly.ite30 () Int)
(declare-fun call_firefly.ite25 () Int)
(declare-fun call_firefly.ite2 () Int)
(declare-fun call_firefly.flby () Int)
(declare-fun param_e1 () Bool)
(declare-fun call_firefly.invalid () Int)
(declare-fun call_firefly.garde8 () Bool)
(declare-fun dirty () Int)
(declare-fun call_firefly.ite16 () Int)
(declare-fun call_firefly.ite27 () Int)
(declare-fun invalid () Int)
(declare-fun call_firefly.ite20 () Int)
(declare-fun param_e4 () Bool)
(declare-fun call_firefly.ite32 () Int)
(declare-fun param_e2 () Bool)
(declare-fun call_firefly.flby4 () Int)
(declare-fun call_firefly.ite14 () Int)
(declare-fun call_firefly.flby3 () Int)
(declare-fun call_firefly.ite22 () Int)
(declare-fun call_firefly.ite40 () Int)
(declare-fun call_firefly.ite35 () Int)
(declare-fun _A1_ () Bool)
(declare-fun call_firefly.ite8 () Int)
(declare-fun env () Bool)
(declare-fun param_e8 () Bool)
(declare-fun param_e7 () Bool)
(declare-fun call_firefly.ite24 () Int)
(declare-fun call_firefly.ite12 () Int)
(declare-fun call_firefly.shared () Int)
(declare-fun call_firefly.ite9 () Int)
(declare-fun call_firefly.garde6 () Bool)
(declare-fun call_Sofar.flby () Bool)
(declare-fun call_firefly.ite29 () Int)
(declare-fun call_firefly.ite39 () Int)
(declare-fun call_firefly.flby2 () Int)
(declare-fun param_e5 () Bool)
(declare-fun call_firefly.dirty () Int)
(declare-fun call_firefly.mem_invalid () Int)
(declare-fun call_firefly.ite19 () Int)
(declare-fun call_firefly.ite38 () Int)
(declare-fun _A2_ () Bool)
(declare-fun call_firefly.ite5 () Int)
(declare-fun call_firefly.ite10 () Int)
(declare-fun call_firefly.ite6 () Int)
(declare-fun call_firefly.flby5 () Int)
(declare-fun call_firefly.ite26 () Int)
(declare-fun call_firefly.ite13 () Int)
(declare-fun param_e3 () Bool)
(declare-fun call_firefly.ite15 () Int)
(declare-fun call_excludes8.excludes () Bool)
(declare-fun call_firefly.ite3 () Int)
(declare-fun call_firefly.ite34 () Int)
(declare-fun call_firefly.garde3 () Bool)
(declare-fun call_firefly.ite18 () Int)
(declare-fun param_e6 () Bool)
(declare-fun call_firefly.exclusive () Int)
(declare-fun call_firefly.ite33 () Int)
(declare-fun call_firefly.ite21 () Int)
(declare-fun call_firefly.ite11 () Int)
(declare-fun call_firefly.ite4 () Int)
(declare-fun shared () Int)
(declare-fun _OK_ () Bool)
(declare-fun call_firefly.ite17 () Int)
(declare-fun call_Sofar.Sofar () Bool)
(declare-fun exclusive () Int)
(declare-fun call_firefly.ite7 () Int)
(define-fun .def_1131 () Bool (= call_Sofar.flby call_Sofar.Sofar))
(define-fun .def_926 () Bool (not param_e2))
(define-fun .def_907 () Bool (not param_e1))
(define-fun .def_1079 () Bool (and .def_907 .def_926))
(define-fun .def_954 () Bool (not param_e3))
(define-fun .def_1080 () Bool (and .def_954 .def_1079))
(define-fun .def_979 () Bool (not param_e4))
(define-fun .def_1081 () Bool (and .def_979 .def_1080))
(define-fun .def_996 () Bool (not param_e5))
(define-fun .def_1082 () Bool (and .def_996 .def_1081))
(define-fun .def_1014 () Bool (not param_e6))
(define-fun .def_1083 () Bool (and .def_1014 .def_1082))
(define-fun .def_849 () Bool (not param_e7))
(define-fun .def_1084 () Bool (and .def_849 .def_1083))
(define-fun .def_833 () Bool (not param_e8))
(define-fun .def_1120 () Bool (and .def_833 .def_1084))
(define-fun .def_1113 () Bool (and param_e1 .def_926))
(define-fun .def_1114 () Bool (and .def_954 .def_1113))
(define-fun .def_1115 () Bool (and .def_979 .def_1114))
(define-fun .def_1116 () Bool (and .def_996 .def_1115))
(define-fun .def_1117 () Bool (and .def_1014 .def_1116))
(define-fun .def_1118 () Bool (and .def_849 .def_1117))
(define-fun .def_1119 () Bool (and .def_833 .def_1118))
(define-fun .def_1121 () Bool (or .def_1119 .def_1120))
(define-fun .def_1106 () Bool (and .def_907 param_e2))
(define-fun .def_1107 () Bool (and .def_954 .def_1106))
(define-fun .def_1108 () Bool (and .def_979 .def_1107))
(define-fun .def_1109 () Bool (and .def_996 .def_1108))
(define-fun .def_1110 () Bool (and .def_1014 .def_1109))
(define-fun .def_1111 () Bool (and .def_849 .def_1110))
(define-fun .def_1112 () Bool (and .def_833 .def_1111))
(define-fun .def_1122 () Bool (or .def_1112 .def_1121))
(define-fun .def_1100 () Bool (and param_e3 .def_1079))
(define-fun .def_1101 () Bool (and .def_979 .def_1100))
(define-fun .def_1102 () Bool (and .def_996 .def_1101))
(define-fun .def_1103 () Bool (and .def_1014 .def_1102))
(define-fun .def_1104 () Bool (and .def_849 .def_1103))
(define-fun .def_1105 () Bool (and .def_833 .def_1104))
(define-fun .def_1123 () Bool (or .def_1105 .def_1122))
(define-fun .def_1095 () Bool (and param_e4 .def_1080))
(define-fun .def_1096 () Bool (and .def_996 .def_1095))
(define-fun .def_1097 () Bool (and .def_1014 .def_1096))
(define-fun .def_1098 () Bool (and .def_849 .def_1097))
(define-fun .def_1099 () Bool (and .def_833 .def_1098))
(define-fun .def_1124 () Bool (or .def_1099 .def_1123))
(define-fun .def_1091 () Bool (and param_e5 .def_1081))
(define-fun .def_1092 () Bool (and .def_1014 .def_1091))
(define-fun .def_1093 () Bool (and .def_849 .def_1092))
(define-fun .def_1094 () Bool (and .def_833 .def_1093))
(define-fun .def_1125 () Bool (or .def_1094 .def_1124))
(define-fun .def_1088 () Bool (and param_e6 .def_1082))
(define-fun .def_1089 () Bool (and .def_849 .def_1088))
(define-fun .def_1090 () Bool (and .def_833 .def_1089))
(define-fun .def_1126 () Bool (or .def_1090 .def_1125))
(define-fun .def_1086 () Bool (and param_e7 .def_1083))
(define-fun .def_1087 () Bool (and .def_833 .def_1086))
(define-fun .def_1127 () Bool (or .def_1087 .def_1126))
(define-fun .def_1085 () Bool (and param_e8 .def_1084))
(define-fun .def_1128 () Bool (or .def_1085 .def_1127))
(define-fun .def_1129 () Bool (= call_excludes8.excludes .def_1128))
(define-fun .def_1077 () Bool (= call_firefly.flby call_firefly.mem_invalid))
(define-fun .def_1075 () Bool (= call_firefly.flby5 call_firefly.shared))
(define-fun .def_1073 () Bool (= call_firefly.flby4 call_firefly.exclusive))
(define-fun .def_1071 () Bool (= call_firefly.flby3 call_firefly.dirty))
(define-fun .def_1069 () Bool (= call_firefly.flby2 call_firefly.invalid))
(define-fun .def_1066 () Bool (<= 0 exclusive))
(define-fun .def_1067 () Bool (= _A1_ .def_1066))
(define-fun .def_1061 () Bool (<= 2 dirty))
(define-fun .def_1062 () Bool (not .def_1061))
(define-fun .def_1060 () Bool (not env))
(define-fun .def_1063 () Bool (or .def_1060 .def_1062))
(define-fun .def_1064 () Bool (= _RT_ .def_1063))
(define-fun .def_1058 () Bool (= shared call_firefly.shared))
(define-fun .def_1054 () Bool (= exclusive call_firefly.exclusive))
(define-fun .def_1050 () Bool (= dirty call_firefly.dirty))
(define-fun .def_1047 () Bool (= invalid call_firefly.invalid))
(define-fun .def_1040 () Bool (and _A2_ _A1_))
(define-fun .def_1042 () Bool (and .def_1040 _RT_))
(define-fun .def_1043 () Bool (= _OK_ .def_1042))
(define-fun .def_1034 () Bool (= call_firefly.ite36 call_firefly.ite37))
(define-fun .def_1035 () Bool (or param_e7 .def_1034))
(define-fun .def_1031 () Bool (= call_firefly.ite37 call_firefly.ite34))
(define-fun .def_1032 () Bool (or .def_849 .def_1031))
(define-fun .def_1027 () Bool (= call_firefly.ite8 call_firefly.ite5))
(define-fun .def_1028 () Bool (or .def_849 .def_1027))
(define-fun .def_1024 () Bool (= call_firefly.ite7 call_firefly.ite8))
(define-fun .def_1025 () Bool (or param_e7 .def_1024))
(define-fun .def_1029 () Bool (and .def_1025 .def_1028))
(define-fun .def_1033 () Bool (and .def_1029 .def_1032))
(define-fun .def_1036 () Bool (and .def_1033 .def_1035))
(define-fun .def_1020 () Bool (= call_firefly.ite17 call_firefly.ite18))
(define-fun .def_1021 () Bool (or param_e6 .def_1020))
(define-fun .def_1017 () Bool (= call_firefly.ite15 call_firefly.ite18))
(define-fun .def_1018 () Bool (or .def_1014 .def_1017))
(define-fun .def_1013 () Bool (= call_firefly.ite9 call_firefly.ite4))
(define-fun .def_1015 () Bool (or .def_1013 .def_1014))
(define-fun .def_1009 () Bool (= call_firefly.ite9 call_firefly.ite8))
(define-fun .def_1011 () Bool (or .def_1009 param_e6))
(define-fun .def_1016 () Bool (and .def_1011 .def_1015))
(define-fun .def_1019 () Bool (and .def_1016 .def_1018))
(define-fun .def_1022 () Bool (and .def_1019 .def_1021))
(define-fun .def_1004 () Bool (= call_firefly.ite38 call_firefly.ite37))
(define-fun .def_1005 () Bool (or param_e5 .def_1004))
(define-fun .def_1000 () Bool (= call_firefly.ite38 call_firefly.ite33))
(define-fun .def_1001 () Bool (or .def_996 .def_1000))
(define-fun .def_995 () Bool (= call_firefly.ite27 call_firefly.ite24))
(define-fun .def_997 () Bool (or .def_995 .def_996))
(define-fun .def_991 () Bool (= call_firefly.ite26 call_firefly.ite27))
(define-fun .def_993 () Bool (or .def_991 param_e5))
(define-fun .def_998 () Bool (and .def_993 .def_997))
(define-fun .def_1002 () Bool (and .def_998 .def_1001))
(define-fun .def_1006 () Bool (and .def_1002 .def_1005))
(define-fun .def_987 () Bool (= call_firefly.ite28 call_firefly.ite27))
(define-fun .def_988 () Bool (or param_e4 .def_987))
(define-fun .def_983 () Bool (= call_firefly.ite28 call_firefly.ite23))
(define-fun .def_984 () Bool (or .def_979 .def_983))
(define-fun .def_978 () Bool (= call_firefly.ite19 call_firefly.ite14))
(define-fun .def_980 () Bool (or .def_978 .def_979))
(define-fun .def_974 () Bool (= call_firefly.ite19 call_firefly.ite18))
(define-fun .def_976 () Bool (or .def_974 param_e4))
(define-fun .def_981 () Bool (and .def_976 .def_980))
(define-fun .def_985 () Bool (and .def_981 .def_984))
(define-fun .def_989 () Bool (and .def_985 .def_988))
(define-fun .def_969 () Bool (= call_firefly.ite39 call_firefly.ite38))
(define-fun .def_970 () Bool (or param_e3 .def_969))
(define-fun .def_965 () Bool (= call_firefly.ite39 call_firefly.ite32))
(define-fun .def_966 () Bool (or .def_954 .def_965))
(define-fun .def_961 () Bool (= call_firefly.ite29 call_firefly.ite28))
(define-fun .def_962 () Bool (or param_e3 .def_961))
(define-fun .def_957 () Bool (= call_firefly.ite22 call_firefly.ite29))
(define-fun .def_958 () Bool (or .def_954 .def_957))
(define-fun .def_953 () Bool (= call_firefly.ite10 call_firefly.ite3))
(define-fun .def_955 () Bool (or .def_953 .def_954))
(define-fun .def_949 () Bool (= call_firefly.ite10 call_firefly.ite9))
(define-fun .def_951 () Bool (or .def_949 param_e3))
(define-fun .def_956 () Bool (and .def_951 .def_955))
(define-fun .def_959 () Bool (and .def_956 .def_958))
(define-fun .def_963 () Bool (and .def_959 .def_962))
(define-fun .def_967 () Bool (and .def_963 .def_966))
(define-fun .def_971 () Bool (and .def_967 .def_970))
(define-fun .def_944 () Bool (= call_firefly.ite40 call_firefly.ite39))
(define-fun .def_945 () Bool (or param_e2 .def_944))
(define-fun .def_940 () Bool (= call_firefly.ite31 call_firefly.ite40))
(define-fun .def_941 () Bool (or .def_926 .def_940))
(define-fun .def_935 () Bool (= call_firefly.ite20 call_firefly.ite19))
(define-fun .def_936 () Bool (or param_e2 .def_935))
(define-fun .def_931 () Bool (= call_firefly.ite13 call_firefly.ite20))
(define-fun .def_932 () Bool (or .def_926 .def_931))
(define-fun .def_925 () Bool (= call_firefly.ite11 call_firefly.ite2))
(define-fun .def_927 () Bool (or .def_925 .def_926))
(define-fun .def_921 () Bool (= call_firefly.ite11 call_firefly.ite10))
(define-fun .def_923 () Bool (or .def_921 param_e2))
(define-fun .def_928 () Bool (and .def_923 .def_927))
(define-fun .def_933 () Bool (and .def_928 .def_932))
(define-fun .def_937 () Bool (and .def_933 .def_936))
(define-fun .def_942 () Bool (and .def_937 .def_941))
(define-fun .def_946 () Bool (and .def_942 .def_945))
(define-fun .def_916 () Bool (= call_firefly.ite30 call_firefly.ite29))
(define-fun .def_917 () Bool (or param_e1 .def_916))
(define-fun .def_912 () Bool (= call_firefly.ite21 call_firefly.ite30))
(define-fun .def_913 () Bool (or .def_907 .def_912))
(define-fun .def_906 () Bool (= call_firefly.ite12 call_firefly.ite))
(define-fun .def_908 () Bool (or .def_906 .def_907))
(define-fun .def_902 () Bool (= call_firefly.ite12 call_firefly.ite11))
(define-fun .def_904 () Bool (or .def_902 param_e1))
(define-fun .def_909 () Bool (and .def_904 .def_908))
(define-fun .def_914 () Bool (and .def_909 .def_913))
(define-fun .def_918 () Bool (and .def_914 .def_917))
(define-fun .def_898 () Bool (= env call_Sofar.Sofar))
(define-fun .def_893 () Bool (<= 0 dirty))
(define-fun .def_895 () Bool (= .def_893 _A2_))
(define-fun .def_899 () Bool (and .def_895 .def_898))
(define-fun .def_919 () Bool (and .def_899 .def_918))
(define-fun .def_947 () Bool (and .def_919 .def_946))
(define-fun .def_972 () Bool (and .def_947 .def_971))
(define-fun .def_990 () Bool (and .def_972 .def_989))
(define-fun .def_1007 () Bool (and .def_990 .def_1006))
(define-fun .def_1023 () Bool (and .def_1007 .def_1022))
(define-fun .def_1037 () Bool (and .def_1023 .def_1036))
(define-fun .def_1044 () Bool (and .def_1037 .def_1043))
(define-fun .def_1048 () Bool (and .def_1044 .def_1047))
(define-fun .def_1051 () Bool (and .def_1048 .def_1050))
(define-fun .def_1055 () Bool (and .def_1051 .def_1054))
(define-fun .def_1059 () Bool (and .def_1055 .def_1058))
(define-fun .def_1065 () Bool (and .def_1059 .def_1064))
(define-fun .def_1068 () Bool (and .def_1065 .def_1067))
(define-fun .def_1070 () Bool (and .def_1068 .def_1069))
(define-fun .def_1072 () Bool (and .def_1070 .def_1071))
(define-fun .def_1074 () Bool (and .def_1072 .def_1073))
(define-fun .def_1076 () Bool (and .def_1074 .def_1075))
(define-fun .def_1078 () Bool (and .def_1076 .def_1077))
(define-fun .def_1130 () Bool (and .def_1078 .def_1129))
(define-fun .def_1132 () Bool (and .def_1130 .def_1131))
(define-fun .def_886 () Bool (<= 0 param_i_invalid))
(define-fun .def_888 () Bool (and .def_886 call_excludes8.excludes))
(define-fun .def_890 () Bool (= .def_888 call_Sofar.flby))
(define-fun .def_884 () Bool (= call_firefly.flby5 0))
(define-fun .def_881 () Bool (= call_firefly.flby4 0))
(define-fun .def_878 () Bool (= call_firefly.flby3 0))
(define-fun .def_875 () Bool (= call_firefly.flby2 call_firefly.mem_invalid))
(define-fun .def_871 () Bool (= param_i_invalid call_firefly.flby))
(define-fun .def_866 () Bool (= call_firefly.ite25 0))
(define-fun .def_865 () Bool (not call_firefly.garde8))
(define-fun .def_867 () Bool (or .def_865 .def_866))
(define-fun .def_861 () Bool (= call_firefly.ite15 1))
(define-fun .def_859 () Bool (not call_firefly.garde6))
(define-fun .def_862 () Bool (or .def_859 .def_861))
(define-fun .def_855 () Bool (= call_firefly.ite22 0))
(define-fun .def_853 () Bool (not call_firefly.garde3))
(define-fun .def_856 () Bool (or .def_853 .def_855))
(define-fun .def_847 () Bool (= call_firefly.ite16 call_firefly.ite17))
(define-fun .def_850 () Bool (or .def_847 .def_849))
(define-fun .def_842 () Bool (= call_firefly.ite35 call_firefly.ite36))
(define-fun .def_843 () Bool (or .def_833 .def_842))
(define-fun .def_837 () Bool (= call_firefly.ite6 call_firefly.ite7))
(define-fun .def_838 () Bool (or .def_833 .def_837))
(define-fun .def_831 () Bool (= call_firefly.ite25 call_firefly.ite26))
(define-fun .def_834 () Bool (or .def_831 .def_833))
(define-fun .def_839 () Bool (and .def_834 .def_838))
(define-fun .def_844 () Bool (and .def_839 .def_843))
(define-fun .def_851 () Bool (and .def_844 .def_850))
(define-fun .def_857 () Bool (and .def_851 .def_856))
(define-fun .def_863 () Bool (and .def_857 .def_862))
(define-fun .def_868 () Bool (and .def_863 .def_867))
(define-fun .def_872 () Bool (and .def_868 .def_871))
(define-fun .def_876 () Bool (and .def_872 .def_875))
(define-fun .def_879 () Bool (and .def_876 .def_878))
(define-fun .def_882 () Bool (and .def_879 .def_881))
(define-fun .def_885 () Bool (and .def_882 .def_884))
(define-fun .def_891 () Bool (and .def_885 .def_890))
(define-fun .def_1133 () Bool (and .def_891 .def_1132))
(assert .def_1133)
